p cep 213 3232
1 3
1 7
1 8
1 9
1 12
1 15
1 20
1 22
1 30
1 32
1 36
1 41
1 46
1 52
1 53
1 65
1 70
1 78
1 80
1 87
1 88
1 100
1 103
1 112
1 115
1 125
1 137
1 149
1 151
1 152
1 164
1 168
1 170
1 175
1 178
1 180
1 182
1 193
1 195
1 201
1 203
1 212
1 213
2 5
2 10
2 21
2 25
2 26
2 29
2 33
2 37
2 42
2 44
2 45
2 49
2 50
2 51
2 54
2 55
2 59
2 60
2 74
2 75
2 79
2 82
2 86
2 93
2 94
2 101
2 109
2 111
2 113
2 119
2 120
2 123
2 129
2 136
2 140
2 142
2 143
2 144
2 145
2 153
2 158
2 159
2 160
2 161
2 163
2 165
2 167
2 172
2 179
2 184
2 185
2 187
2 190
2 194
2 198
2 199
2 204
2 208
2 211
3 7
3 8
3 9
3 12
3 15
3 20
3 22
3 30
3 32
3 36
3 41
3 46
3 52
3 53
3 65
3 70
3 78
3 80
3 87
3 88
3 100
3 103
3 112
3 115
3 125
3 137
3 149
3 151
3 152
3 164
3 168
3 170
3 175
3 178
3 180
3 182
3 193
3 195
3 201
3 203
3 212
3 213
4 24
4 27
4 48
4 58
4 71
4 76
4 110
4 139
4 147
4 156
4 171
4 183
4 189
4 191
4 200
4 206
4 207
4 210
5 10
5 21
5 25
5 26
5 29
5 33
5 37
5 42
5 44
5 45
5 49
5 50
5 51
5 54
5 55
5 59
5 60
5 74
5 75
5 79
5 82
5 86
5 93
5 94
5 101
5 109
5 111
5 113
5 119
5 120
5 123
5 129
5 136
5 140
5 142
5 143
5 144
5 145
5 153
5 158
5 159
5 160
5 161
5 163
5 165
5 167
5 172
5 179
5 184
5 185
5 187
5 190
5 194
5 198
5 199
5 204
5 208
5 211
7 8
7 9
7 12
7 15
7 20
7 22
7 30
7 32
7 36
7 41
7 46
7 52
7 53
7 65
7 70
7 78
7 80
7 87
7 88
7 100
7 103
7 112
7 115
7 125
7 137
7 149
7 151
7 152
7 164
7 168
7 170
7 175
7 178
7 180
7 182
7 193
7 195
7 201
7 203
7 212
7 213
8 9
8 12
8 15
8 20
8 22
8 30
8 32
8 36
8 41
8 46
8 52
8 53
8 65
8 70
8 78
8 100
8 103
8 112
8 115
8 125
8 137
8 149
8 151
8 152
8 168
8 170
8 175
8 178
8 180
8 182
8 193
8 195
8 201
8 203
8 212
8 213
9 12
9 15
9 20
9 22
9 30
9 32
9 36
9 41
9 46
9 52
9 53
9 65
9 70
9 78
9 80
9 87
9 88
9 100
9 103
9 112
9 115
9 125
9 137
9 149
9 151
9 152
9 164
9 168
9 170
9 175
9 178
9 180
9 182
9 193
9 195
9 201
9 203
9 212
9 213
10 21
10 25
10 26
10 29
10 37
10 42
10 44
10 45
10 49
10 51
10 54
10 55
10 59
10 60
10 74
10 75
10 79
10 82
10 93
10 94
10 101
10 109
10 113
10 119
10 120
10 123
10 129
10 136
10 140
10 142
10 143
10 145
10 153
10 158
10 159
10 160
10 161
10 163
10 165
10 167
10 172
10 179
10 184
10 185
10 187
10 190
10 194
10 198
10 199
10 204
10 208
11 13
11 17
11 56
11 68
11 69
11 95
11 106
11 114
11 154
11 166
11 181
12 15
12 20
12 22
12 30
12 32
12 36
12 41
12 46
12 52
12 53
12 65
12 70
12 78
12 100
12 103
12 112
12 115
12 125
12 137
12 149
12 151
12 152
12 168
12 170
12 175
12 178
12 180
12 182
12 193
12 195
12 201
12 203
12 212
12 213
13 17
13 56
13 68
13 69
13 95
13 106
13 114
13 121
13 150
13 154
13 166
13 181
14 155
15 20
15 22
15 30
15 32
15 36
15 41
15 46
15 52
15 53
15 65
15 70
15 78
15 80
15 87
15 88
15 100
15 103
15 112
15 115
15 125
15 137
15 149
15 151
15 152
15 164
15 168
15 170
15 175
15 178
15 180
15 182
15 193
15 195
15 201
15 203
15 212
15 213
16 157
17 56
17 63
17 68
17 69
17 95
17 106
17 114
17 121
17 134
17 150
17 154
17 166
17 181
17 209
18 34
18 35
18 89
18 92
18 116
18 131
18 162
18 169
18 174
19 23
19 35
19 39
19 61
19 62
19 77
19 90
19 91
19 116
19 131
19 135
19 146
19 150
19 169
19 192
20 22
20 30
20 32
20 36
20 41
20 46
20 52
20 53
20 65
20 70
20 78
20 80
20 87
20 88
20 100
20 103
20 112
20 115
20 125
20 137
20 149
20 151
20 152
20 164
20 168
20 170
20 175
20 178
20 180
20 182
20 193
20 195
20 201
20 203
20 212
20 213
21 25
21 26
21 29
21 33
21 37
21 42
21 44
21 45
21 49
21 50
21 51
21 54
21 55
21 59
21 60
21 74
21 75
21 79
21 82
21 86
21 93
21 94
21 101
21 109
21 111
21 113
21 119
21 120
21 123
21 129
21 136
21 140
21 142
21 143
21 144
21 145
21 153
21 158
21 159
21 160
21 161
21 163
21 165
21 167
21 172
21 179
21 184
21 185
21 187
21 190
21 194
21 198
21 199
21 204
21 208
21 211
22 30
22 32
22 36
22 41
22 46
22 52
22 53
22 65
22 70
22 78
22 100
22 103
22 112
22 115
22 125
22 137
22 149
22 151
22 152
22 168
22 170
22 175
22 178
22 180
22 182
22 193
22 195
22 201
22 203
22 212
22 213
23 34
23 35
23 39
23 40
23 43
23 61
23 62
23 77
23 85
23 89
23 90
23 91
23 102
23 116
23 117
23 121
23 124
23 131
23 135
23 146
23 150
23 162
23 169
23 174
23 192
24 27
24 48
24 58
24 71
24 76
24 110
24 139
24 147
24 156
24 171
24 183
24 189
24 191
24 200
24 206
24 207
24 210
25 26
25 29
25 33
25 37
25 42
25 44
25 45
25 49
25 50
25 51
25 54
25 55
25 59
25 60
25 74
25 75
25 79
25 82
25 86
25 93
25 94
25 101
25 109
25 111
25 113
25 119
25 120
25 123
25 129
25 136
25 140
25 142
25 143
25 144
25 145
25 153
25 158
25 159
25 160
25 161
25 163
25 165
25 167
25 172
25 179
25 184
25 185
25 187
25 190
25 194
25 198
25 199
25 204
25 208
25 211
26 29
26 33
26 37
26 42
26 44
26 45
26 49
26 50
26 51
26 54
26 55
26 59
26 60
26 74
26 75
26 79
26 82
26 86
26 93
26 94
26 101
26 109
26 111
26 113
26 119
26 120
26 123
26 129
26 136
26 140
26 142
26 143
26 144
26 145
26 153
26 158
26 159
26 160
26 161
26 163
26 165
26 167
26 172
26 179
26 184
26 185
26 187
26 190
26 194
26 198
26 199
26 204
26 208
26 211
27 48
27 58
27 71
27 76
27 110
27 139
27 147
27 156
27 171
27 183
27 189
27 191
27 200
27 206
27 207
27 210
29 33
29 37
29 42
29 44
29 45
29 49
29 50
29 51
29 54
29 55
29 59
29 60
29 74
29 75
29 79
29 82
29 86
29 93
29 94
29 101
29 109
29 111
29 113
29 119
29 120
29 123
29 129
29 136
29 140
29 142
29 143
29 144
29 145
29 153
29 158
29 159
29 160
29 161
29 163
29 165
29 167
29 172
29 179
29 184
29 185
29 187
29 190
29 194
29 198
29 199
29 204
29 208
29 211
30 32
30 36
30 41
30 46
30 52
30 53
30 65
30 70
30 78
30 80
30 87
30 88
30 100
30 103
30 112
30 115
30 125
30 137
30 149
30 151
30 152
30 164
30 168
30 170
30 175
30 178
30 180
30 182
30 193
30 195
30 201
30 203
30 212
30 213
31 34
31 35
31 39
31 64
31 89
31 116
31 131
31 169
31 174
32 36
32 41
32 46
32 52
32 53
32 65
32 70
32 78
32 87
32 88
32 100
32 103
32 112
32 115
32 125
32 137
32 149
32 151
32 152
32 164
32 168
32 170
32 175
32 178
32 180
32 182
32 193
32 195
32 201
32 203
32 212
32 213
33 37
33 42
33 44
33 45
33 49
33 50
33 51
33 54
33 55
33 59
33 60
33 74
33 75
33 79
33 82
33 86
33 93
33 94
33 101
33 109
33 111
33 113
33 119
33 120
33 123
33 129
33 136
33 140
33 142
33 143
33 144
33 145
33 153
33 158
33 159
33 160
33 161
33 163
33 165
33 167
33 172
33 179
33 184
33 185
33 187
33 190
33 194
33 198
33 199
33 204
33 208
33 211
34 35
34 39
34 62
34 64
34 77
34 85
34 89
34 90
34 91
34 92
34 116
34 117
34 131
34 135
34 146
34 169
34 174
34 192
35 39
35 61
35 62
35 63
35 64
35 77
35 85
35 89
35 90
35 91
35 92
35 99
35 116
35 117
35 131
35 135
35 138
35 146
35 150
35 162
35 169
35 174
35 192
36 41
36 46
36 52
36 53
36 65
36 70
36 78
36 80
36 87
36 88
36 100
36 103
36 112
36 115
36 125
36 137
36 149
36 151
36 152
36 164
36 168
36 170
36 175
36 178
36 180
36 182
36 193
36 195
36 201
36 203
36 212
36 213
37 42
37 44
37 45
37 49
37 50
37 51
37 54
37 55
37 59
37 60
37 74
37 75
37 79
37 82
37 86
37 93
37 94
37 101
37 109
37 111
37 113
37 119
37 120
37 123
37 129
37 136
37 140
37 142
37 143
37 144
37 145
37 153
37 158
37 159
37 160
37 161
37 163
37 165
37 167
37 172
37 179
37 184
37 185
37 187
37 190
37 194
37 198
37 199
37 204
37 208
37 211
38 81
39 62
39 64
39 89
39 90
39 91
39 98
39 116
39 117
39 131
39 135
39 146
39 150
39 169
39 174
39 192
40 121
40 124
40 148
40 150
41 46
41 52
41 53
41 65
41 70
41 78
41 80
41 87
41 88
41 100
41 103
41 112
41 115
41 125
41 137
41 149
41 151
41 152
41 164
41 168
41 170
41 175
41 178
41 180
41 182
41 193
41 195
41 201
41 203
41 212
41 213
42 44
42 45
42 49
42 50
42 51
42 54
42 55
42 59
42 60
42 74
42 75
42 79
42 82
42 86
42 93
42 94
42 101
42 109
42 111
42 113
42 119
42 120
42 123
42 129
42 136
42 140
42 142
42 143
42 144
42 145
42 153
42 158
42 159
42 160
42 161
42 163
42 165
42 167
42 172
42 179
42 184
42 185
42 187
42 190
42 194
42 198
42 199
42 204
42 208
42 211
43 63
43 91
43 95
43 102
43 106
43 114
43 121
43 150
43 154
44 45
44 49
44 50
44 51
44 54
44 55
44 59
44 60
44 74
44 75
44 79
44 82
44 86
44 93
44 94
44 101
44 109
44 111
44 113
44 119
44 120
44 123
44 129
44 136
44 140
44 142
44 143
44 144
44 145
44 153
44 158
44 159
44 160
44 161
44 163
44 165
44 167
44 172
44 179
44 184
44 185
44 187
44 190
44 194
44 198
44 199
44 204
44 208
44 211
45 49
45 50
45 51
45 54
45 55
45 59
45 60
45 74
45 75
45 79
45 82
45 86
45 93
45 94
45 101
45 109
45 111
45 113
45 119
45 120
45 123
45 129
45 136
45 140
45 142
45 143
45 144
45 145
45 153
45 158
45 159
45 160
45 161
45 163
45 165
45 167
45 172
45 179
45 184
45 185
45 187
45 190
45 194
45 198
45 199
45 204
45 208
45 211
46 52
46 53
46 65
46 70
46 78
46 80
46 87
46 88
46 100
46 103
46 112
46 115
46 125
46 137
46 149
46 151
46 152
46 164
46 168
46 170
46 175
46 178
46 180
46 182
46 193
46 195
46 201
46 203
46 212
46 213
47 67
48 58
48 71
48 76
48 110
48 139
48 147
48 156
48 171
48 183
48 189
48 191
48 200
48 206
48 207
48 210
49 50
49 51
49 54
49 55
49 59
49 60
49 74
49 75
49 79
49 82
49 86
49 93
49 94
49 101
49 109
49 111
49 113
49 119
49 120
49 123
49 129
49 136
49 140
49 142
49 143
49 144
49 145
49 153
49 158
49 159
49 160
49 161
49 163
49 165
49 167
49 172
49 179
49 184
49 185
49 187
49 190
49 194
49 198
49 199
49 204
49 208
49 211
50 51
50 54
50 55
50 59
50 60
50 74
50 75
50 79
50 82
50 86
50 93
50 94
50 101
50 109
50 111
50 113
50 119
50 120
50 123
50 129
50 136
50 140
50 142
50 143
50 144
50 145
50 153
50 158
50 159
50 160
50 161
50 163
50 165
50 167
50 172
50 179
50 184
50 185
50 187
50 190
50 194
50 198
50 199
50 204
50 208
50 211
51 54
51 55
51 59
51 60
51 74
51 75
51 79
51 82
51 86
51 93
51 94
51 101
51 109
51 111
51 113
51 119
51 120
51 123
51 129
51 136
51 140
51 142
51 143
51 144
51 145
51 153
51 158
51 159
51 160
51 161
51 163
51 165
51 167
51 172
51 179
51 184
51 185
51 187
51 190
51 194
51 198
51 199
51 204
51 208
51 211
52 53
52 65
52 70
52 78
52 80
52 87
52 88
52 100
52 103
52 112
52 115
52 125
52 137
52 149
52 151
52 152
52 164
52 168
52 170
52 175
52 178
52 180
52 182
52 193
52 195
52 201
52 203
52 212
52 213
53 65
53 70
53 78
53 100
53 103
53 112
53 115
53 125
53 137
53 149
53 151
53 152
53 164
53 168
53 170
53 175
53 178
53 180
53 182
53 193
53 195
53 201
53 203
53 212
53 213
54 55
54 59
54 60
54 74
54 75
54 79
54 82
54 86
54 93
54 94
54 101
54 109
54 111
54 113
54 119
54 120
54 123
54 129
54 136
54 140
54 142
54 143
54 144
54 145
54 153
54 158
54 159
54 160
54 161
54 163
54 165
54 167
54 172
54 179
54 184
54 185
54 187
54 190
54 194
54 198
54 199
54 204
54 208
54 211
55 59
55 60
55 74
55 75
55 79
55 82
55 86
55 93
55 94
55 101
55 109
55 111
55 113
55 119
55 120
55 123
55 129
55 136
55 140
55 142
55 143
55 144
55 145
55 153
55 158
55 159
55 160
55 161
55 163
55 165
55 167
55 172
55 179
55 184
55 185
55 187
55 190
55 194
55 198
55 199
55 204
55 208
55 211
56 68
56 69
56 95
56 106
56 114
56 121
56 150
56 154
56 166
56 181
57 66
58 71
58 76
58 110
58 139
58 147
58 156
58 171
58 183
58 189
58 191
58 200
58 206
58 207
58 210
59 60
59 74
59 75
59 79
59 82
59 86
59 93
59 94
59 101
59 109
59 111
59 113
59 119
59 120
59 123
59 129
59 136
59 140
59 142
59 143
59 144
59 145
59 153
59 158
59 159
59 160
59 161
59 163
59 165
59 167
59 172
59 179
59 184
59 185
59 187
59 190
59 194
59 198
59 199
59 204
59 208
59 211
60 74
60 75
60 79
60 82
60 86
60 93
60 94
60 101
60 109
60 111
60 113
60 119
60 120
60 123
60 129
60 136
60 140
60 142
60 143
60 144
60 145
60 153
60 158
60 159
60 160
60 161
60 163
60 165
60 167
60 172
60 179
60 184
60 185
60 187
60 190
60 194
60 198
60 199
60 204
60 208
60 211
61 90
61 91
61 131
61 135
61 146
61 169
61 192
62 85
62 89
62 90
62 91
62 116
62 117
62 131
62 135
62 146
62 169
62 174
62 192
63 91
63 95
63 121
63 124
63 134
63 148
63 150
63 154
63 169
63 209
64 89
64 116
64 169
64 174
65 70
65 78
65 80
65 87
65 100
65 103
65 112
65 115
65 125
65 137
65 149
65 151
65 152
65 168
65 170
65 175
65 178
65 180
65 182
65 193
65 195
65 201
65 203
65 212
65 213
66 157
67 186
68 69
68 95
68 106
68 114
68 121
68 150
68 154
68 166
68 181
69 95
69 106
69 114
69 121
69 150
69 154
69 166
69 181
70 78
70 87
70 88
70 100
70 103
70 112
70 115
70 125
70 137
70 149
70 151
70 152
70 164
70 168
70 170
70 175
70 178
70 180
70 182
70 193
70 195
70 201
70 203
70 212
70 213
71 76
71 110
71 139
71 147
71 156
71 171
71 183
71 189
71 191
71 200
71 206
71 207
71 210
72 122
73 150
74 75
74 79
74 82
74 86
74 93
74 94
74 101
74 109
74 111
74 113
74 119
74 120
74 123
74 129
74 136
74 140
74 142
74 143
74 144
74 145
74 153
74 158
74 159
74 160
74 161
74 163
74 165
74 167
74 172
74 179
74 184
74 185
74 187
74 190
74 194
74 198
74 199
74 204
74 208
74 211
75 79
75 82
75 86
75 93
75 94
75 101
75 109
75 111
75 113
75 119
75 120
75 123
75 129
75 136
75 140
75 142
75 143
75 144
75 145
75 153
75 158
75 159
75 160
75 161
75 163
75 165
75 167
75 172
75 179
75 184
75 185
75 187
75 190
75 194
75 198
75 199
75 204
75 208
75 211
76 110
76 139
76 147
76 156
76 171
76 183
76 189
76 191
76 200
76 206
76 207
76 210
77 89
77 90
77 91
77 117
77 121
77 124
77 131
77 135
77 146
77 148
77 150
77 169
77 174
77 192
78 80
78 87
78 100
78 103
78 112
78 115
78 125
78 137
78 149
78 151
78 152
78 168
78 170
78 175
78 178
78 180
78 182
78 193
78 195
78 201
78 203
78 212
78 213
79 82
79 86
79 93
79 94
79 101
79 109
79 111
79 113
79 119
79 120
79 123
79 129
79 136
79 140
79 142
79 143
79 144
79 145
79 153
79 158
79 159
79 160
79 161
79 163
79 165
79 167
79 172
79 179
79 184
79 185
79 187
79 190
79 194
79 198
79 199
79 204
79 208
79 211
80 100
80 112
80 115
80 125
80 137
80 151
80 152
80 168
80 170
80 175
80 180
80 193
80 195
80 201
80 203
80 212
80 213
82 86
82 93
82 94
82 101
82 109
82 111
82 113
82 119
82 120
82 123
82 129
82 136
82 140
82 142
82 143
82 144
82 145
82 153
82 158
82 159
82 160
82 161
82 163
82 165
82 167
82 172
82 179
82 184
82 185
82 187
82 190
82 194
82 198
82 199
82 204
82 208
82 211
85 89
85 90
85 91
85 99
85 116
85 131
85 135
85 138
85 162
85 169
85 174
85 192
86 93
86 94
86 101
86 109
86 111
86 113
86 119
86 120
86 123
86 129
86 136
86 140
86 142
86 143
86 144
86 145
86 153
86 158
86 159
86 160
86 161
86 163
86 165
86 167
86 172
86 179
86 184
86 185
86 187
86 190
86 194
86 198
86 199
86 204
86 208
86 211
87 88
87 100
87 103
87 112
87 115
87 125
87 137
87 149
87 151
87 152
87 164
87 168
87 170
87 175
87 178
87 180
87 182
87 193
87 195
87 201
87 203
87 212
87 213
88 100
88 103
88 115
88 125
88 137
88 151
88 152
88 164
88 168
88 175
88 180
88 182
88 193
88 195
88 201
88 203
88 212
88 213
89 91
89 92
89 98
89 116
89 117
89 131
89 135
89 169
89 174
89 192
90 91
90 116
90 117
90 131
90 135
90 146
90 150
90 169
90 174
90 192
91 95
91 102
91 116
91 117
91 121
91 124
91 131
91 135
91 146
91 150
91 169
91 174
91 192
92 116
92 131
92 162
92 169
92 174
93 94
93 101
93 109
93 111
93 113
93 119
93 120
93 123
93 129
93 136
93 140
93 142
93 143
93 144
93 145
93 153
93 158
93 159
93 160
93 161
93 163
93 165
93 167
93 172
93 179
93 184
93 185
93 187
93 190
93 194
93 198
93 199
93 204
93 208
93 211
94 101
94 109
94 111
94 113
94 119
94 120
94 123
94 129
94 136
94 140
94 142
94 143
94 144
94 145
94 153
94 158
94 159
94 160
94 161
94 163
94 165
94 167
94 172
94 179
94 184
94 185
94 187
94 190
94 194
94 198
94 199
94 204
94 208
94 211
95 102
95 106
95 114
95 121
95 134
95 150
95 154
95 166
95 181
95 209
96 126
98 116
98 131
98 162
98 169
98 192
99 138
99 169
100 103
100 112
100 115
100 125
100 137
100 149
100 151
100 152
100 164
100 168
100 170
100 175
100 178
100 180
100 182
100 193
100 195
100 201
100 203
100 212
100 213
101 109
101 111
101 113
101 119
101 120
101 123
101 129
101 136
101 140
101 142
101 143
101 144
101 145
101 153
101 158
101 159
101 160
101 161
101 163
101 165
101 167
101 172
101 179
101 184
101 185
101 187
101 190
101 194
101 198
101 199
101 204
101 208
101 211
102 106
102 114
102 121
102 150
102 154
103 112
103 115
103 125
103 137
103 149
103 151
103 152
103 164
103 168
103 170
103 175
103 178
103 180
103 182
103 193
103 195
103 201
103 203
103 212
103 213
106 114
106 150
106 154
106 181
107 130
109 111
109 113
109 119
109 120
109 123
109 129
109 136
109 140
109 142
109 143
109 144
109 145
109 153
109 158
109 159
109 160
109 161
109 163
109 165
109 167
109 172
109 179
109 184
109 185
109 187
109 190
109 194
109 198
109 199
109 204
109 208
109 211
110 139
110 147
110 156
110 171
110 183
110 189
110 191
110 200
110 206
110 207
110 210
111 113
111 119
111 120
111 123
111 129
111 136
111 140
111 142
111 143
111 144
111 145
111 153
111 158
111 159
111 160
111 161
111 163
111 165
111 167
111 172
111 179
111 184
111 185
111 187
111 190
111 194
111 198
111 199
111 204
111 208
111 211
112 115
112 125
112 137
112 149
112 151
112 152
112 168
112 170
112 175
112 178
112 180
112 182
112 193
112 195
112 201
112 203
112 212
112 213
113 119
113 120
113 123
113 129
113 136
113 140
113 142
113 143
113 144
113 145
113 153
113 158
113 159
113 160
113 161
113 163
113 165
113 167
113 172
113 179
113 184
113 185
113 187
113 190
113 194
113 198
113 199
113 204
113 208
113 211
114 150
114 154
114 181
115 125
115 137
115 149
115 151
115 152
115 164
115 168
115 170
115 175
115 178
115 180
115 182
115 193
115 195
115 201
115 203
115 212
115 213
116 117
116 131
116 146
116 162
116 169
116 174
116 192
117 131
117 135
117 150
117 169
117 174
117 192
118 177
119 120
119 123
119 129
119 136
119 140
119 142
119 143
119 144
119 145
119 153
119 158
119 159
119 160
119 161
119 163
119 165
119 167
119 172
119 179
119 184
119 185
119 187
119 190
119 194
119 198
119 199
119 204
119 208
119 211
120 123
120 129
120 136
120 140
120 142
120 143
120 144
120 145
120 153
120 158
120 159
120 160
120 161
120 163
120 165
120 167
120 172
120 179
120 184
120 185
120 187
120 190
120 194
120 198
120 199
120 204
120 208
120 211
121 124
121 134
121 135
121 146
121 148
121 150
121 154
121 209
123 129
123 136
123 140
123 142
123 143
123 144
123 145
123 153
123 158
123 159
123 160
123 161
123 163
123 165
123 167
123 172
123 179
123 184
123 185
123 187
123 190
123 194
123 198
123 199
123 204
123 208
123 211
124 148
124 150
125 137
125 149
125 151
125 152
125 164
125 168
125 170
125 175
125 178
125 180
125 182
125 193
125 195
125 201
125 203
125 212
125 213
127 196
129 136
129 140
129 142
129 143
129 144
129 145
129 153
129 158
129 159
129 160
129 161
129 163
129 165
129 167
129 172
129 179
129 184
129 185
129 187
129 190
129 194
129 198
129 199
129 204
129 208
129 211
131 135
131 138
131 146
131 162
131 169
131 174
131 192
134 150
134 154
134 209
135 146
135 150
135 169
135 174
135 192
136 140
136 142
136 143
136 144
136 145
136 153
136 158
136 159
136 160
136 161
136 163
136 165
136 167
136 172
136 179
136 184
136 185
136 187
136 190
136 194
136 198
136 199
136 204
136 208
136 211
137 149
137 151
137 152
137 164
137 168
137 170
137 175
137 178
137 180
137 182
137 193
137 195
137 201
137 203
137 212
137 213
138 169
139 147
139 156
139 171
139 183
139 189
139 191
139 200
139 206
139 207
139 210
140 142
140 143
140 144
140 145
140 153
140 158
140 159
140 160
140 161
140 163
140 165
140 167
140 172
140 179
140 184
140 185
140 187
140 190
140 194
140 198
140 199
140 204
140 208
140 211
141 197
142 143
142 144
142 145
142 153
142 158
142 159
142 160
142 161
142 163
142 165
142 167
142 172
142 179
142 184
142 185
142 187
142 190
142 194
142 198
142 199
142 204
142 208
142 211
143 144
143 145
143 153
143 158
143 159
143 160
143 161
143 163
143 165
143 167
143 172
143 179
143 184
143 185
143 187
143 190
143 194
143 198
143 199
143 204
143 208
143 211
144 145
144 153
144 158
144 159
144 160
144 161
144 163
144 165
144 167
144 172
144 179
144 184
144 185
144 187
144 190
144 194
144 198
144 199
144 204
144 208
144 211
145 153
145 158
145 159
145 160
145 161
145 163
145 165
145 167
145 172
145 179
145 184
145 185
145 187
145 190
145 194
145 198
145 199
145 204
145 208
145 211
146 150
146 169
146 174
146 192
147 156
147 171
147 183
147 189
147 191
147 200
147 206
147 207
147 210
148 150
149 151
149 152
149 164
149 168
149 170
149 175
149 178
149 180
149 182
149 193
149 195
149 201
149 203
149 212
149 213
150 154
150 169
150 192
150 209
151 152
151 164
151 168
151 170
151 175
151 178
151 180
151 182
151 193
151 195
151 201
151 203
151 212
151 213
152 164
152 168
152 170
152 175
152 178
152 180
152 182
152 193
152 195
152 201
152 203
152 212
152 213
153 158
153 159
153 160
153 161
153 163
153 165
153 167
153 172
153 179
153 184
153 185
153 187
153 190
153 194
153 198
153 199
153 204
153 208
153 211
154 181
156 171
156 183
156 189
156 191
156 200
156 206
156 207
156 210
158 159
158 160
158 161
158 163
158 165
158 167
158 172
158 179
158 184
158 185
158 187
158 190
158 194
158 198
158 199
158 204
158 208
158 211
159 160
159 161
159 163
159 165
159 167
159 172
159 179
159 184
159 185
159 187
159 190
159 194
159 198
159 199
159 204
159 208
159 211
160 161
160 163
160 165
160 167
160 172
160 179
160 184
160 185
160 187
160 190
160 194
160 198
160 199
160 204
160 208
160 211
161 163
161 165
161 167
161 172
161 179
161 184
161 185
161 187
161 190
161 194
161 198
161 199
161 204
161 208
161 211
162 169
162 192
163 165
163 167
163 172
163 179
163 184
163 185
163 187
163 190
163 194
163 198
163 199
163 204
163 208
163 211
164 168
164 170
164 175
164 180
164 182
164 193
164 195
164 201
164 203
164 212
164 213
165 167
165 172
165 179
165 184
165 185
165 187
165 190
165 194
165 198
165 199
165 204
165 208
165 211
167 172
167 179
167 184
167 185
167 187
167 190
167 194
167 198
167 199
167 204
167 208
167 211
168 170
168 175
168 178
168 180
168 182
168 193
168 195
168 201
168 203
168 212
168 213
169 174
169 192
170 175
170 178
170 180
170 182
170 193
170 195
170 201
170 203
170 212
170 213
171 183
171 189
171 191
171 200
171 206
171 207
171 210
172 179
172 184
172 185
172 187
172 190
172 194
172 198
172 199
172 204
172 208
172 211
174 192
175 178
175 180
175 182
175 193
175 195
175 201
175 203
175 212
175 213
178 180
178 182
178 193
178 195
178 201
178 203
178 212
178 213
179 184
179 185
179 187
179 190
179 194
179 198
179 199
179 204
179 208
179 211
180 182
180 193
180 195
180 201
180 203
180 212
180 213
182 193
182 195
182 201
182 203
182 212
182 213
183 189
183 191
183 200
183 206
183 207
183 210
184 185
184 187
184 190
184 194
184 198
184 199
184 204
184 208
184 211
185 187
185 190
185 194
185 198
185 199
185 204
185 208
185 211
187 190
187 194
187 198
187 199
187 204
187 208
187 211
189 191
189 200
189 206
189 207
189 210
190 194
190 198
190 199
190 204
190 208
190 211
191 200
191 206
191 207
191 210
193 195
193 201
193 203
193 212
193 213
194 198
194 199
194 204
194 208
194 211
195 201
195 203
195 212
195 213
198 199
198 204
198 208
198 211
199 204
199 208
199 211
200 206
200 207
200 210
201 203
201 212
201 213
203 212
203 213
204 208
204 211
206 207
206 210
207 210
208 211
212 213
